c cksystemsgroup.github.io/unicorn
c CNF contains a total of 499 clauses.
c CNF contains a total of 121 variables.
c CNF clauses cover 1 bad states.
c Variable name mapping (17 names):
c   1: input[bit=0]
c   2: input[bit=0]
c   5: input[bit=1]
c   7: input[bit=1]
c   13: input[bit=2]
c   18: input[bit=2]
c   24: input[bit=3]
c   32: input[bit=3]
c   37: input[bit=4]
c   48: input[bit=4]
c   53: input[bit=5]
c   67: input[bit=5]
c   73: input[bit=6]
c   90: input[bit=6]
c   96: input[bit=7]
c   116: input[bit=7]
c   121: ?
p cnf 121 499
-1 -2 3 0
1 -3 0
2 -3 0
-3 -4 0
3 4 0
-5 -2 6 0
5 -6 0
2 -6 0
-1 -7 8 0
1 -8 0
7 -8 0
-9 0
6 8 9 -10 0
6 8 -9 10 0
6 -8 9 10 0
6 -8 -9 -10 0
-6 8 9 10 0
-6 8 -9 -10 0
-6 -8 9 -10 0
-6 -8 -9 10 0
-10 -11 0
10 11 0
-4 -11 12 0
4 -12 0
11 -12 0
-13 -2 14 0
13 -14 0
2 -14 0
-5 -7 15 0
5 -15 0
7 -15 0
6 8 -16 0
6 9 -16 0
-8 -9 16 0
8 9 -16 0
-6 -9 16 0
-6 -8 16 0
14 15 16 -17 0
14 15 -16 17 0
14 -15 16 17 0
14 -15 -16 -17 0
-14 15 16 17 0
-14 15 -16 -17 0
-14 -15 16 -17 0
-14 -15 -16 17 0
-1 -18 19 0
1 -19 0
18 -19 0
-20 0
17 19 20 -21 0
17 19 -20 21 0
17 -19 20 21 0
17 -19 -20 -21 0
-17 19 20 21 0
-17 19 -20 -21 0
-17 -19 20 -21 0
-17 -19 -20 21 0
-21 -22 0
21 22 0
-12 -22 23 0
12 -23 0
22 -23 0
-24 -2 25 0
24 -25 0
2 -25 0
-13 -7 26 0
13 -26 0
7 -26 0
14 15 -27 0
14 16 -27 0
-15 -16 27 0
15 16 -27 0
-14 -16 27 0
-14 -15 27 0
25 26 27 -28 0
25 26 -27 28 0
25 -26 27 28 0
25 -26 -27 -28 0
-25 26 27 28 0
-25 26 -27 -28 0
-25 -26 27 -28 0
-25 -26 -27 28 0
-5 -18 29 0
5 -29 0
18 -29 0
17 19 -30 0
17 20 -30 0
-19 -20 30 0
19 20 -30 0
-17 -20 30 0
-17 -19 30 0
28 29 30 -31 0
28 29 -30 31 0
28 -29 30 31 0
28 -29 -30 -31 0
-28 29 30 31 0
-28 29 -30 -31 0
-28 -29 30 -31 0
-28 -29 -30 31 0
-1 -32 33 0
1 -33 0
32 -33 0
-34 0
31 33 34 -35 0
31 33 -34 35 0
31 -33 34 35 0
31 -33 -34 -35 0
-31 33 34 35 0
-31 33 -34 -35 0
-31 -33 34 -35 0
-31 -33 -34 35 0
-23 -35 36 0
23 -36 0
35 -36 0
-37 -2 38 0
37 -38 0
2 -38 0
-24 -7 39 0
24 -39 0
7 -39 0
25 26 -40 0
25 27 -40 0
-26 -27 40 0
26 27 -40 0
-25 -27 40 0
-25 -26 40 0
38 39 40 -41 0
38 39 -40 41 0
38 -39 40 41 0
38 -39 -40 -41 0
-38 39 40 41 0
-38 39 -40 -41 0
-38 -39 40 -41 0
-38 -39 -40 41 0
-13 -18 42 0
13 -42 0
18 -42 0
28 29 -43 0
28 30 -43 0
-29 -30 43 0
29 30 -43 0
-28 -30 43 0
-28 -29 43 0
41 42 43 -44 0
41 42 -43 44 0
41 -42 43 44 0
41 -42 -43 -44 0
-41 42 43 44 0
-41 42 -43 -44 0
-41 -42 43 -44 0
-41 -42 -43 44 0
-5 -32 45 0
5 -45 0
32 -45 0
31 33 -46 0
31 34 -46 0
-33 -34 46 0
33 34 -46 0
-31 -34 46 0
-31 -33 46 0
44 45 46 -47 0
44 45 -46 47 0
44 -45 46 47 0
44 -45 -46 -47 0
-44 45 46 47 0
-44 45 -46 -47 0
-44 -45 46 -47 0
-44 -45 -46 47 0
-1 -48 49 0
1 -49 0
48 -49 0
-50 0
47 49 50 -51 0
47 49 -50 51 0
47 -49 50 51 0
47 -49 -50 -51 0
-47 49 50 51 0
-47 49 -50 -51 0
-47 -49 50 -51 0
-47 -49 -50 51 0
-36 -51 52 0
36 -52 0
51 -52 0
-53 -2 54 0
53 -54 0
2 -54 0
-37 -7 55 0
37 -55 0
7 -55 0
38 39 -56 0
38 40 -56 0
-39 -40 56 0
39 40 -56 0
-38 -40 56 0
-38 -39 56 0
54 55 56 -57 0
54 55 -56 57 0
54 -55 56 57 0
54 -55 -56 -57 0
-54 55 56 57 0
-54 55 -56 -57 0
-54 -55 56 -57 0
-54 -55 -56 57 0
-24 -18 58 0
24 -58 0
18 -58 0
41 42 -59 0
41 43 -59 0
-42 -43 59 0
42 43 -59 0
-41 -43 59 0
-41 -42 59 0
57 58 59 -60 0
57 58 -59 60 0
57 -58 59 60 0
57 -58 -59 -60 0
-57 58 59 60 0
-57 58 -59 -60 0
-57 -58 59 -60 0
-57 -58 -59 60 0
-13 -32 61 0
13 -61 0
32 -61 0
44 45 -62 0
44 46 -62 0
-45 -46 62 0
45 46 -62 0
-44 -46 62 0
-44 -45 62 0
60 61 62 -63 0
60 61 -62 63 0
60 -61 62 63 0
60 -61 -62 -63 0
-60 61 62 63 0
-60 61 -62 -63 0
-60 -61 62 -63 0
-60 -61 -62 63 0
-5 -48 64 0
5 -64 0
48 -64 0
47 49 -65 0
47 50 -65 0
-49 -50 65 0
49 50 -65 0
-47 -50 65 0
-47 -49 65 0
63 64 65 -66 0
63 64 -65 66 0
63 -64 65 66 0
63 -64 -65 -66 0
-63 64 65 66 0
-63 64 -65 -66 0
-63 -64 65 -66 0
-63 -64 -65 66 0
-1 -67 68 0
1 -68 0
67 -68 0
-69 0
66 68 69 -70 0
66 68 -69 70 0
66 -68 69 70 0
66 -68 -69 -70 0
-66 68 69 70 0
-66 68 -69 -70 0
-66 -68 69 -70 0
-66 -68 -69 70 0
-70 -71 0
70 71 0
-52 -71 72 0
52 -72 0
71 -72 0
-73 -2 74 0
73 -74 0
2 -74 0
-53 -7 75 0
53 -75 0
7 -75 0
54 55 -76 0
54 56 -76 0
-55 -56 76 0
55 56 -76 0
-54 -56 76 0
-54 -55 76 0
74 75 76 -77 0
74 75 -76 77 0
74 -75 76 77 0
74 -75 -76 -77 0
-74 75 76 77 0
-74 75 -76 -77 0
-74 -75 76 -77 0
-74 -75 -76 77 0
-37 -18 78 0
37 -78 0
18 -78 0
57 58 -79 0
57 59 -79 0
-58 -59 79 0
58 59 -79 0
-57 -59 79 0
-57 -58 79 0
77 78 79 -80 0
77 78 -79 80 0
77 -78 79 80 0
77 -78 -79 -80 0
-77 78 79 80 0
-77 78 -79 -80 0
-77 -78 79 -80 0
-77 -78 -79 80 0
-24 -32 81 0
24 -81 0
32 -81 0
60 61 -82 0
60 62 -82 0
-61 -62 82 0
61 62 -82 0
-60 -62 82 0
-60 -61 82 0
80 81 82 -83 0
80 81 -82 83 0
80 -81 82 83 0
80 -81 -82 -83 0
-80 81 82 83 0
-80 81 -82 -83 0
-80 -81 82 -83 0
-80 -81 -82 83 0
-13 -48 84 0
13 -84 0
48 -84 0
63 64 -85 0
63 65 -85 0
-64 -65 85 0
64 65 -85 0
-63 -65 85 0
-63 -64 85 0
83 84 85 -86 0
83 84 -85 86 0
83 -84 85 86 0
83 -84 -85 -86 0
-83 84 85 86 0
-83 84 -85 -86 0
-83 -84 85 -86 0
-83 -84 -85 86 0
-5 -67 87 0
5 -87 0
67 -87 0
66 68 -88 0
66 69 -88 0
-68 -69 88 0
68 69 -88 0
-66 -69 88 0
-66 -68 88 0
86 87 88 -89 0
86 87 -88 89 0
86 -87 88 89 0
86 -87 -88 -89 0
-86 87 88 89 0
-86 87 -88 -89 0
-86 -87 88 -89 0
-86 -87 -88 89 0
-1 -90 91 0
1 -91 0
90 -91 0
-92 0
89 91 92 -93 0
89 91 -92 93 0
89 -91 92 93 0
89 -91 -92 -93 0
-89 91 92 93 0
-89 91 -92 -93 0
-89 -91 92 -93 0
-89 -91 -92 93 0
-93 -94 0
93 94 0
-72 -94 95 0
72 -95 0
94 -95 0
-96 -2 97 0
96 -97 0
2 -97 0
-73 -7 98 0
73 -98 0
7 -98 0
74 75 -99 0
74 76 -99 0
-75 -76 99 0
75 76 -99 0
-74 -76 99 0
-74 -75 99 0
97 98 99 -100 0
97 98 -99 100 0
97 -98 99 100 0
97 -98 -99 -100 0
-97 98 99 100 0
-97 98 -99 -100 0
-97 -98 99 -100 0
-97 -98 -99 100 0
-53 -18 101 0
53 -101 0
18 -101 0
77 78 -102 0
77 79 -102 0
-78 -79 102 0
78 79 -102 0
-77 -79 102 0
-77 -78 102 0
100 101 102 -103 0
100 101 -102 103 0
100 -101 102 103 0
100 -101 -102 -103 0
-100 101 102 103 0
-100 101 -102 -103 0
-100 -101 102 -103 0
-100 -101 -102 103 0
-37 -32 104 0
37 -104 0
32 -104 0
80 81 -105 0
80 82 -105 0
-81 -82 105 0
81 82 -105 0
-80 -82 105 0
-80 -81 105 0
103 104 105 -106 0
103 104 -105 106 0
103 -104 105 106 0
103 -104 -105 -106 0
-103 104 105 106 0
-103 104 -105 -106 0
-103 -104 105 -106 0
-103 -104 -105 106 0
-24 -48 107 0
24 -107 0
48 -107 0
83 84 -108 0
83 85 -108 0
-84 -85 108 0
84 85 -108 0
-83 -85 108 0
-83 -84 108 0
106 107 108 -109 0
106 107 -108 109 0
106 -107 108 109 0
106 -107 -108 -109 0
-106 107 108 109 0
-106 107 -108 -109 0
-106 -107 108 -109 0
-106 -107 -108 109 0
-13 -67 110 0
13 -110 0
67 -110 0
86 87 -111 0
86 88 -111 0
-87 -88 111 0
87 88 -111 0
-86 -88 111 0
-86 -87 111 0
109 110 111 -112 0
109 110 -111 112 0
109 -110 111 112 0
109 -110 -111 -112 0
-109 110 111 112 0
-109 110 -111 -112 0
-109 -110 111 -112 0
-109 -110 -111 112 0
-5 -90 113 0
5 -113 0
90 -113 0
89 91 -114 0
89 92 -114 0
-91 -92 114 0
91 92 -114 0
-89 -92 114 0
-89 -91 114 0
112 113 114 -115 0
112 113 -114 115 0
112 -113 114 115 0
112 -113 -114 -115 0
-112 113 114 115 0
-112 113 -114 -115 0
-112 -113 114 -115 0
-112 -113 -114 115 0
-1 -116 117 0
1 -117 0
116 -117 0
-118 0
115 117 118 -119 0
115 117 -118 119 0
115 -117 118 119 0
115 -117 -118 -119 0
-115 117 118 119 0
-115 117 -118 -119 0
-115 -117 118 -119 0
-115 -117 -118 119 0
-119 -120 0
119 120 0
-95 -120 121 0
95 -121 0
120 -121 0
121 0
